50, 10577
113, 211
131, 232
598, 698
179, 277
133, 231
465, 567
418, 517
214, 315
392, 493
843, 942
132, 232
188, 290
28, 129
240, 340
95, 195
985, 1085
315, 415
990, 1091
130, 229
905, 1007
507, 606
691, 790
663, 765
271, 369
233, 333
680, 780
132, 232
14, 116
772, 873
634, 734
261, 359
521, 623
910, 1009
279, 378
124, 223
418, 516
168, 266
369, 467
33, 134
764, 863
807, 907
374, 475
378, 476
258, 359
954, 1052
878, 980
663, 765
175, 275
173, 272
768, 868
